p edge 250 3170
e 1 24
e 1 52
e 1 53
e 1 60
e 1 63
e 1 83
e 1 91
e 1 103
e 1 120
e 1 126
e 1 129
e 1 139
e 1 175
e 1 193
e 1 221
e 1 233
e 1 243
e 2 5
e 2 11
e 2 17
e 2 18
e 2 38
e 2 66
e 2 79
e 2 84
e 2 86
e 2 88
e 2 104
e 2 105
e 2 106
e 2 120
e 2 124
e 2 133
e 2 135
e 2 141
e 2 153
e 2 155
e 2 159
e 2 161
e 2 162
e 2 165
e 2 182
e 2 208
e 2 227
e 2 235
e 2 238
e 3 7
e 3 9
e 3 17
e 3 41
e 3 45
e 3 52
e 3 59
e 3 71
e 3 76
e 3 77
e 3 79
e 3 124
e 3 130
e 3 132
e 3 142
e 3 143
e 3 169
e 3 176
e 3 180
e 3 203
e 3 207
e 3 213
e 3 218
e 3 219
e 3 232
e 3 237
e 4 29
e 4 31
e 4 33
e 4 36
e 4 45
e 4 47
e 4 55
e 4 77
e 4 88
e 4 89
e 4 94
e 4 100
e 4 123
e 4 127
e 4 139
e 4 150
e 4 153
e 4 154
e 4 181
e 4 195
e 4 196
e 4 203
e 4 237
e 4 248
e 5 15
e 5 25
e 5 27
e 5 33
e 5 35
e 5 41
e 5 47
e 5 64
e 5 87
e 5 100
e 5 136
e 5 152
e 5 156
e 5 166
e 5 168
e 5 174
e 5 190
e 5 205
e 5 206
e 5 213
e 5 218
e 6 8
e 6 11
e 6 16
e 6 19
e 6 24
e 6 38
e 6 45
e 6 75
e 6 91
e 6 98
e 6 101
e 6 110
e 6 115
e 6 156
e 6 166
e 6 173
e 6 177
e 6 186
e 6 187
e 6 188
e 6 204
e 6 222
e 6 224
e 6 233
e 6 234
e 6 249
e 6 250
e 7 10
e 7 28
e 7 34
e 7 41
e 7 44
e 7 49
e 7 59
e 7 96
e 7 123
e 7 124
e 7 128
e 7 137
e 7 171
e 7 189
e 7 203
e 7 210
e 7 220
e 7 225
e 8 39
e 8 59
e 8 84
e 8 90
e 8 109
e 8 114
e 8 126
e 8 135
e 8 144
e 8 149
e 8 156
e 8 157
e 8 166
e 8 173
e 8 185
e 8 206
e 8 227
e 8 243
e 8 245
e 8 246
e 8 250
e 9 11
e 9 36
e 9 50
e 9 51
e 9 84
e 9 92
e 9 97
e 9 107
e 9 109
e 9 136
e 9 139
e 9 144
e 9 151
e 9 156
e 9 159
e 9 161
e 9 163
e 9 164
e 9 168
e 9 188
e 9 197
e 9 216
e 9 218
e 9 228
e 9 229
e 9 237
e 9 245
e 10 28
e 10 42
e 10 59
e 10 83
e 10 85
e 10 95
e 10 100
e 10 113
e 10 115
e 10 118
e 10 123
e 10 132
e 10 152
e 10 169
e 10 170
e 10 189
e 10 192
e 10 198
e 10 223
e 10 233
e 10 248
e 11 38
e 11 49
e 11 67
e 11 68
e 11 78
e 11 86
e 11 94
e 11 129
e 11 131
e 11 144
e 11 166
e 11 168
e 11 176
e 11 194
e 11 198
e 11 215
e 11 222
e 11 224
e 11 231
e 11 240
e 12 23
e 12 28
e 12 33
e 12 46
e 12 50
e 12 54
e 12 57
e 12 65
e 12 66
e 12 72
e 12 77
e 12 78
e 12 79
e 12 90
e 12 103
e 12 128
e 12 153
e 12 174
e 12 176
e 12 179
e 12 187
e 12 193
e 12 194
e 12 203
e 12 217
e 12 220
e 12 221
e 12 238
e 13 15
e 13 18
e 13 24
e 13 30
e 13 34
e 13 36
e 13 58
e 13 61
e 13 68
e 13 76
e 13 78
e 13 126
e 13 132
e 13 152
e 13 161
e 13 164
e 13 173
e 13 179
e 13 182
e 13 186
e 13 187
e 13 202
e 13 232
e 13 239
e 13 247
e 14 21
e 14 35
e 14 47
e 14 54
e 14 79
e 14 105
e 14 113
e 14 115
e 14 116
e 14 119
e 14 121
e 14 133
e 14 138
e 14 149
e 14 163
e 14 168
e 14 169
e 14 185
e 14 238
e 14 241
e 15 18
e 15 27
e 15 45
e 15 46
e 15 66
e 15 76
e 15 77
e 15 88
e 15 89
e 15 113
e 15 115
e 15 116
e 15 127
e 15 128
e 15 138
e 15 142
e 15 147
e 15 160
e 15 165
e 15 166
e 15 188
e 15 191
e 15 217
e 15 240
e 16 17
e 16 20
e 16 23
e 16 27
e 16 30
e 16 42
e 16 44
e 16 55
e 16 66
e 16 67
e 16 74
e 16 75
e 16 89
e 16 91
e 16 102
e 16 110
e 16 121
e 16 126
e 16 128
e 16 132
e 16 147
e 16 148
e 16 156
e 16 158
e 16 174
e 16 195
e 16 203
e 16 209
e 16 217
e 16 225
e 16 231
e 16 237
e 16 242
e 17 20
e 17 32
e 17 36
e 17 40
e 17 46
e 17 51
e 17 65
e 17 76
e 17 90
e 17 148
e 17 155
e 17 196
e 17 206
e 17 217
e 17 222
e 17 223
e 17 231
e 17 240
e 18 22
e 18 29
e 18 36
e 18 39
e 18 47
e 18 56
e 18 78
e 18 81
e 18 104
e 18 123
e 18 125
e 18 135
e 18 153
e 18 160
e 18 182
e 18 186
e 18 189
e 18 190
e 18 209
e 18 217
e 18 247
e 19 27
e 19 57
e 19 128
e 19 139
e 19 146
e 19 159
e 19 163
e 19 171
e 19 182
e 19 192
e 19 203
e 19 222
e 19 241
e 19 246
e 20 27
e 20 31
e 20 35
e 20 46
e 20 54
e 20 67
e 20 68
e 20 84
e 20 86
e 20 90
e 20 119
e 20 124
e 20 136
e 20 142
e 20 151
e 20 162
e 20 185
e 20 189
e 20 190
e 20 202
e 20 213
e 20 215
e 20 219
e 20 238
e 20 242
e 20 243
e 20 248
e 21 27
e 21 29
e 21 40
e 21 44
e 21 54
e 21 57
e 21 58
e 21 65
e 21 66
e 21 87
e 21 103
e 21 109
e 21 118
e 21 124
e 21 148
e 21 150
e 21 151
e 21 152
e 21 173
e 21 175
e 21 183
e 21 191
e 21 194
e 21 205
e 21 219
e 21 226
e 21 242
e 21 246
e 22 27
e 22 30
e 22 31
e 22 57
e 22 78
e 22 80
e 22 92
e 22 104
e 22 105
e 22 119
e 22 131
e 22 136
e 22 137
e 22 138
e 22 144
e 22 155
e 22 162
e 22 165
e 22 168
e 22 180
e 22 204
e 22 208
e 22 221
e 22 231
e 22 237
e 22 241
e 22 247
e 23 28
e 23 32
e 23 48
e 23 70
e 23 91
e 23 93
e 23 96
e 23 99
e 23 110
e 23 129
e 23 131
e 23 137
e 23 138
e 23 156
e 23 158
e 23 161
e 23 171
e 23 174
e 23 198
e 23 199
e 23 201
e 23 206
e 23 214
e 23 215
e 23 222
e 23 230
e 23 235
e 23 250
e 24 25
e 24 44
e 24 52
e 24 95
e 24 96
e 24 97
e 24 101
e 24 104
e 24 131
e 24 139
e 24 140
e 24 153
e 24 155
e 24 159
e 24 161
e 24 165
e 24 170
e 24 176
e 24 193
e 24 196
e 24 227
e 24 235
e 24 236
e 24 242
e 25 36
e 25 38
e 25 42
e 25 49
e 25 52
e 25 60
e 25 61
e 25 87
e 25 93
e 25 94
e 25 97
e 25 103
e 25 104
e 25 142
e 25 145
e 25 152
e 25 156
e 25 157
e 25 158
e 25 159
e 25 160
e 25 187
e 25 204
e 25 206
e 25 225
e 25 227
e 26 31
e 26 39
e 26 82
e 26 87
e 26 100
e 26 121
e 26 124
e 26 134
e 26 146
e 26 151
e 26 155
e 26 159
e 26 185
e 26 202
e 26 208
e 26 235
e 26 236
e 26 249
e 26 250
e 27 29
e 27 30
e 27 33
e 27 37
e 27 57
e 27 66
e 27 74
e 27 90
e 27 97
e 27 98
e 27 101
e 27 108
e 27 112
e 27 117
e 27 133
e 27 153
e 27 157
e 27 162
e 27 181
e 27 185
e 27 196
e 27 218
e 27 220
e 27 243
e 28 43
e 28 49
e 28 53
e 28 55
e 28 59
e 28 66
e 28 70
e 28 71
e 28 73
e 28 75
e 28 93
e 28 104
e 28 132
e 28 137
e 28 140
e 28 142
e 28 143
e 28 175
e 28 196
e 28 224
e 28 227
e 28 242
e 28 249
e 28 250
e 29 50
e 29 68
e 29 83
e 29 105
e 29 111
e 29 134
e 29 137
e 29 152
e 29 164
e 29 168
e 29 182
e 29 193
e 29 200
e 29 202
e 29 227
e 29 229
e 29 231
e 29 236
e 29 241
e 29 247
e 30 45
e 30 48
e 30 54
e 30 55
e 30 58
e 30 65
e 30 68
e 30 84
e 30 106
e 30 121
e 30 139
e 30 159
e 30 160
e 30 177
e 30 184
e 30 192
e 30 198
e 30 206
e 30 207
e 30 222
e 30 249
e 31 36
e 31 47
e 31 66
e 31 82
e 31 92
e 31 100
e 31 105
e 31 107
e 31 110
e 31 116
e 31 131
e 31 138
e 31 149
e 31 151
e 31 153
e 31 154
e 31 166
e 31 170
e 31 172
e 31 176
e 31 181
e 31 193
e 31 196
e 31 210
e 31 218
e 31 220
e 31 239
e 31 245
e 32 40
e 32 46
e 32 57
e 32 58
e 32 63
e 32 70
e 32 97
e 32 112
e 32 115
e 32 116
e 32 137
e 32 140
e 32 141
e 32 146
e 32 147
e 32 160
e 32 164
e 32 183
e 32 188
e 32 190
e 32 203
e 32 208
e 32 212
e 32 214
e 32 215
e 32 226
e 32 246
e 32 247
e 33 49
e 33 53
e 33 55
e 33 90
e 33 97
e 33 103
e 33 104
e 33 106
e 33 112
e 33 113
e 33 133
e 33 137
e 33 141
e 33 149
e 33 165
e 33 172
e 33 186
e 33 189
e 33 196
e 33 197
e 33 202
e 33 213
e 33 227
e 33 230
e 34 50
e 34 58
e 34 62
e 34 63
e 34 64
e 34 67
e 34 69
e 34 70
e 34 82
e 34 96
e 34 102
e 34 111
e 34 118
e 34 126
e 34 128
e 34 129
e 34 135
e 34 141
e 34 148
e 34 158
e 34 173
e 34 192
e 34 201
e 34 203
e 34 205
e 34 234
e 34 242
e 34 248
e 35 42
e 35 50
e 35 72
e 35 81
e 35 89
e 35 99
e 35 107
e 35 114
e 35 117
e 35 130
e 35 139
e 35 148
e 35 149
e 35 150
e 35 158
e 35 190
e 35 200
e 35 223
e 35 231
e 35 238
e 35 247
e 36 42
e 36 51
e 36 64
e 36 71
e 36 74
e 36 91
e 36 100
e 36 129
e 36 136
e 36 137
e 36 153
e 36 174
e 36 175
e 36 188
e 36 189
e 36 204
e 36 205
e 36 208
e 36 214
e 36 215
e 36 218
e 36 228
e 37 86
e 37 100
e 37 101
e 37 108
e 37 122
e 37 134
e 37 154
e 37 166
e 37 181
e 37 186
e 37 191
e 37 201
e 37 202
e 37 204
e 37 219
e 37 220
e 37 222
e 37 233
e 37 236
e 37 241
e 37 244
e 38 53
e 38 63
e 38 97
e 38 107
e 38 112
e 38 119
e 38 131
e 38 142
e 38 149
e 38 155
e 38 157
e 38 165
e 38 166
e 38 168
e 38 172
e 38 180
e 38 182
e 38 186
e 38 194
e 38 198
e 38 220
e 38 223
e 38 231
e 38 250
e 39 46
e 39 48
e 39 53
e 39 63
e 39 73
e 39 101
e 39 110
e 39 124
e 39 134
e 39 135
e 39 151
e 39 156
e 39 175
e 39 180
e 39 182
e 39 183
e 39 191
e 39 193
e 39 209
e 39 225
e 40 48
e 40 68
e 40 86
e 40 87
e 40 93
e 40 97
e 40 103
e 40 106
e 40 125
e 40 127
e 40 135
e 40 137
e 40 147
e 40 155
e 40 165
e 40 174
e 40 179
e 40 196
e 40 214
e 40 219
e 40 234
e 41 47
e 41 62
e 41 66
e 41 75
e 41 76
e 41 83
e 41 87
e 41 97
e 41 109
e 41 115
e 41 119
e 41 123
e 41 137
e 41 138
e 41 159
e 41 175
e 41 196
e 41 221
e 41 227
e 41 234
e 41 244
e 41 245
e 42 60
e 42 62
e 42 69
e 42 73
e 42 84
e 42 96
e 42 100
e 42 112
e 42 114
e 42 122
e 42 133
e 42 138
e 42 153
e 42 167
e 42 171
e 42 176
e 42 184
e 42 191
e 42 194
e 42 195
e 42 196
e 42 199
e 42 205
e 42 207
e 42 208
e 42 210
e 42 211
e 42 227
e 42 233
e 42 240
e 42 243
e 43 59
e 43 73
e 43 76
e 43 85
e 43 91
e 43 110
e 43 121
e 43 123
e 43 131
e 43 143
e 43 152
e 43 158
e 43 173
e 43 201
e 43 208
e 43 209
e 43 211
e 43 218
e 43 237
e 43 249
e 44 53
e 44 54
e 44 55
e 44 61
e 44 63
e 44 67
e 44 70
e 44 94
e 44 95
e 44 98
e 44 111
e 44 119
e 44 131
e 44 143
e 44 145
e 44 149
e 44 154
e 44 155
e 44 165
e 44 171
e 44 183
e 44 204
e 44 206
e 44 208
e 44 209
e 44 211
e 44 230
e 44 246
e 45 47
e 45 50
e 45 53
e 45 73
e 45 76
e 45 78
e 45 82
e 45 88
e 45 98
e 45 108
e 45 109
e 45 117
e 45 180
e 45 190
e 45 210
e 45 216
e 45 223
e 45 224
e 45 228
e 45 229
e 45 232
e 45 235
e 45 240
e 45 241
e 45 242
e 45 243
e 45 248
e 46 47
e 46 81
e 46 85
e 46 86
e 46 94
e 46 112
e 46 129
e 46 130
e 46 135
e 46 141
e 46 146
e 46 184
e 46 190
e 46 228
e 46 229
e 46 237
e 46 241
e 46 245
e 47 51
e 47 68
e 47 77
e 47 81
e 47 82
e 47 116
e 47 141
e 47 156
e 47 160
e 47 175
e 47 179
e 47 185
e 47 195
e 47 196
e 47 198
e 47 200
e 47 215
e 47 225
e 48 50
e 48 53
e 48 54
e 48 57
e 48 58
e 48 67
e 48 85
e 48 92
e 48 96
e 48 107
e 48 112
e 48 116
e 48 119
e 48 120
e 48 123
e 48 138
e 48 146
e 48 191
e 48 194
e 48 196
e 48 215
e 48 231
e 48 237
e 48 244
e 48 246
e 49 54
e 49 59
e 49 60
e 49 66
e 49 92
e 49 94
e 49 95
e 49 103
e 49 105
e 49 110
e 49 120
e 49 130
e 49 134
e 49 162
e 49 163
e 49 164
e 49 172
e 49 173
e 49 185
e 49 191
e 49 217
e 49 229
e 50 53
e 50 70
e 50 88
e 50 89
e 50 93
e 50 119
e 50 155
e 50 178
e 50 191
e 50 201
e 50 226
e 51 56
e 51 61
e 51 63
e 51 65
e 51 66
e 51 68
e 51 69
e 51 102
e 51 155
e 51 180
e 51 196
e 51 209
e 51 214
e 51 232
e 52 83
e 52 89
e 52 91
e 52 133
e 52 156
e 52 167
e 52 168
e 52 173
e 52 185
e 52 188
e 52 189
e 52 200
e 52 205
e 52 223
e 52 229
e 52 230
e 53 55
e 53 64
e 53 82
e 53 104
e 53 112
e 53 116
e 53 121
e 53 136
e 53 138
e 53 160
e 53 162
e 53 167
e 53 174
e 53 192
e 53 206
e 53 210
e 53 218
e 53 221
e 53 226
e 54 55
e 54 58
e 54 60
e 54 70
e 54 77
e 54 81
e 54 82
e 54 85
e 54 86
e 54 91
e 54 120
e 54 157
e 54 158
e 54 178
e 54 195
e 54 220
e 54 223
e 54 226
e 54 231
e 54 237
e 54 239
e 55 65
e 55 66
e 55 75
e 55 77
e 55 94
e 55 119
e 55 121
e 55 123
e 55 125
e 55 132
e 55 136
e 55 139
e 55 144
e 55 159
e 55 165
e 55 167
e 55 172
e 55 177
e 55 183
e 55 189
e 55 198
e 55 202
e 55 206
e 55 208
e 55 227
e 55 228
e 55 238
e 56 74
e 56 84
e 56 91
e 56 94
e 56 109
e 56 124
e 56 161
e 56 169
e 56 179
e 56 189
e 56 192
e 56 219
e 56 232
e 56 235
e 56 243
e 56 244
e 56 245
e 57 61
e 57 67
e 57 69
e 57 71
e 57 76
e 57 79
e 57 99
e 57 118
e 57 136
e 57 143
e 57 144
e 57 145
e 57 152
e 57 164
e 57 175
e 57 193
e 57 209
e 57 216
e 57 224
e 57 229
e 57 246
e 58 66
e 58 82
e 58 85
e 58 90
e 58 103
e 58 108
e 58 114
e 58 133
e 58 136
e 58 146
e 58 149
e 58 165
e 58 182
e 58 193
e 58 198
e 58 236
e 58 248
e 59 102
e 59 103
e 59 116
e 59 117
e 59 125
e 59 141
e 59 147
e 59 173
e 59 187
e 59 193
e 59 207
e 59 212
e 59 240
e 59 248
e 60 62
e 60 76
e 60 82
e 60 93
e 60 102
e 60 111
e 60 130
e 60 132
e 60 134
e 60 137
e 60 140
e 60 154
e 60 174
e 60 176
e 60 190
e 60 192
e 60 194
e 60 199
e 60 205
e 60 207
e 60 228
e 60 230
e 61 64
e 61 65
e 61 71
e 61 90
e 61 91
e 61 104
e 61 105
e 61 108
e 61 122
e 61 127
e 61 129
e 61 143
e 61 169
e 61 180
e 61 192
e 61 215
e 61 226
e 61 233
e 62 63
e 62 73
e 62 74
e 62 76
e 62 94
e 62 99
e 62 108
e 62 116
e 62 117
e 62 140
e 62 165
e 62 166
e 62 183
e 62 187
e 62 189
e 62 194
e 62 207
e 62 213
e 62 217
e 62 227
e 62 235
e 62 237
e 63 64
e 63 66
e 63 67
e 63 75
e 63 78
e 63 88
e 63 119
e 63 142
e 63 144
e 63 174
e 63 196
e 63 199
e 63 201
e 63 204
e 63 215
e 63 218
e 63 229
e 63 235
e 63 245
e 63 248
e 64 72
e 64 79
e 64 91
e 64 94
e 64 109
e 64 128
e 64 137
e 64 161
e 64 163
e 64 164
e 64 166
e 64 168
e 64 169
e 64 175
e 64 186
e 64 188
e 64 203
e 64 205
e 64 212
e 64 220
e 64 228
e 64 233
e 65 69
e 65 73
e 65 83
e 65 84
e 65 90
e 65 92
e 65 96
e 65 99
e 65 114
e 65 123
e 65 136
e 65 146
e 65 188
e 65 192
e 65 201
e 65 202
e 65 206
e 65 216
e 65 219
e 65 226
e 65 235
e 66 75
e 66 81
e 66 94
e 66 101
e 66 138
e 66 142
e 66 146
e 66 150
e 66 160
e 66 163
e 66 174
e 66 196
e 66 197
e 66 201
e 66 203
e 66 205
e 66 227
e 66 230
e 66 249
e 67 84
e 67 97
e 67 98
e 67 99
e 67 111
e 67 114
e 67 148
e 67 157
e 67 168
e 67 172
e 67 175
e 67 184
e 67 188
e 67 191
e 67 202
e 67 218
e 67 241
e 68 72
e 68 86
e 68 137
e 68 138
e 68 142
e 68 164
e 68 171
e 68 174
e 68 175
e 68 177
e 68 178
e 68 183
e 68 228
e 68 231
e 68 232
e 68 238
e 68 243
e 69 71
e 69 81
e 69 91
e 69 108
e 69 110
e 69 117
e 69 119
e 69 122
e 69 130
e 69 133
e 69 134
e 69 148
e 69 150
e 69 158
e 69 174
e 69 188
e 69 189
e 69 193
e 69 196
e 69 199
e 69 201
e 69 222
e 69 228
e 69 231
e 69 234
e 69 240
e 70 74
e 70 95
e 70 133
e 70 139
e 70 140
e 70 165
e 70 192
e 70 198
e 70 200
e 70 204
e 70 212
e 71 79
e 71 124
e 71 128
e 71 141
e 71 142
e 71 148
e 71 167
e 71 168
e 71 175
e 71 181
e 71 183
e 71 200
e 71 210
e 71 219
e 71 227
e 71 242
e 71 244
e 72 73
e 72 74
e 72 91
e 72 101
e 72 119
e 72 132
e 72 154
e 72 162
e 72 171
e 72 178
e 72 187
e 72 191
e 72 192
e 72 195
e 72 198
e 72 208
e 72 215
e 73 74
e 73 91
e 73 114
e 73 129
e 73 142
e 73 166
e 73 169
e 73 171
e 73 179
e 73 196
e 73 197
e 73 201
e 73 218
e 73 231
e 73 232
e 73 243
e 73 244
e 74 87
e 74 88
e 74 98
e 74 103
e 74 108
e 74 115
e 74 144
e 74 148
e 74 150
e 74 159
e 74 162
e 74 168
e 74 174
e 74 190
e 74 193
e 74 195
e 74 201
e 74 216
e 74 238
e 74 239
e 75 103
e 75 105
e 75 106
e 75 115
e 75 120
e 75 121
e 75 129
e 75 135
e 75 173
e 75 175
e 75 177
e 75 183
e 75 186
e 75 193
e 75 194
e 75 195
e 75 196
e 75 197
e 75 198
e 75 210
e 75 211
e 75 218
e 76 93
e 76 113
e 76 115
e 76 148
e 76 155
e 76 167
e 76 171
e 76 174
e 76 179
e 76 181
e 76 193
e 76 197
e 76 204
e 76 210
e 76 236
e 76 238
e 76 241
e 76 243
e 76 245
e 77 83
e 77 95
e 77 97
e 77 104
e 77 118
e 77 130
e 77 158
e 77 161
e 77 162
e 77 163
e 77 170
e 77 174
e 77 180
e 77 183
e 77 200
e 77 204
e 77 210
e 77 213
e 77 226
e 77 237
e 77 250
e 78 81
e 78 82
e 78 104
e 78 105
e 78 111
e 78 122
e 78 124
e 78 127
e 78 128
e 78 132
e 78 138
e 78 151
e 78 152
e 78 171
e 78 177
e 78 197
e 78 199
e 78 208
e 78 209
e 78 221
e 78 229
e 78 250
e 79 103
e 79 111
e 79 153
e 79 157
e 79 159
e 79 171
e 79 174
e 79 181
e 79 190
e 79 204
e 79 207
e 79 215
e 79 216
e 79 225
e 79 240
e 79 242
e 80 98
e 80 107
e 80 120
e 80 124
e 80 126
e 80 132
e 80 145
e 80 149
e 80 157
e 80 188
e 80 191
e 80 194
e 80 201
e 80 205
e 80 206
e 80 208
e 80 211
e 80 234
e 80 235
e 80 240
e 81 93
e 81 123
e 81 150
e 81 152
e 81 158
e 81 174
e 81 185
e 81 202
e 81 212
e 81 218
e 81 228
e 81 245
e 81 249
e 82 96
e 82 100
e 82 106
e 82 114
e 82 116
e 82 117
e 82 137
e 82 138
e 82 145
e 82 147
e 82 148
e 82 160
e 82 197
e 82 203
e 82 204
e 82 229
e 82 232
e 82 250
e 83 84
e 83 96
e 83 105
e 83 165
e 83 180
e 83 183
e 83 188
e 83 190
e 83 202
e 83 207
e 83 210
e 83 211
e 83 222
e 83 225
e 83 239
e 84 101
e 84 131
e 84 160
e 84 165
e 84 166
e 84 176
e 84 181
e 84 182
e 84 185
e 84 213
e 84 223
e 84 229
e 84 249
e 85 102
e 85 110
e 85 113
e 85 118
e 85 147
e 85 150
e 85 153
e 85 164
e 85 172
e 85 179
e 85 184
e 85 189
e 85 197
e 85 202
e 85 205
e 85 210
e 85 218
e 85 225
e 85 234
e 85 240
e 85 249
e 86 104
e 86 135
e 86 155
e 86 164
e 86 171
e 86 174
e 86 199
e 86 212
e 86 221
e 86 222
e 86 224
e 86 233
e 86 249
e 86 250
e 87 97
e 87 102
e 87 111
e 87 127
e 87 129
e 87 145
e 87 148
e 87 159
e 87 162
e 87 169
e 87 172
e 87 182
e 87 184
e 87 191
e 87 197
e 87 201
e 87 205
e 87 206
e 87 220
e 87 223
e 87 242
e 88 92
e 88 122
e 88 146
e 88 149
e 88 150
e 88 179
e 88 181
e 88 182
e 88 190
e 88 193
e 88 197
e 88 216
e 88 217
e 88 222
e 88 233
e 88 236
e 88 239
e 88 246
e 89 103
e 89 110
e 89 113
e 89 124
e 89 125
e 89 148
e 89 165
e 89 166
e 89 171
e 89 181
e 89 194
e 89 201
e 89 225
e 89 249
e 90 99
e 90 105
e 90 108
e 90 117
e 90 123
e 90 130
e 90 133
e 90 136
e 90 139
e 90 142
e 90 152
e 90 160
e 90 166
e 90 173
e 90 180
e 90 185
e 90 203
e 90 204
e 90 212
e 90 216
e 90 225
e 90 229
e 90 247
e 91 92
e 91 98
e 91 106
e 91 127
e 91 129
e 91 130
e 91 132
e 91 152
e 91 159
e 91 162
e 91 163
e 91 168
e 91 173
e 91 183
e 91 222
e 91 229
e 91 231
e 92 95
e 92 105
e 92 109
e 92 110
e 92 155
e 92 163
e 92 183
e 92 214
e 92 219
e 92 222
e 92 229
e 92 246
e 93 116
e 93 141
e 93 143
e 93 147
e 93 148
e 93 154
e 93 159
e 93 161
e 93 165
e 93 168
e 93 169
e 93 170
e 93 180
e 93 188
e 93 213
e 93 243
e 94 99
e 94 125
e 94 133
e 94 134
e 94 159
e 94 169
e 94 174
e 94 177
e 94 180
e 94 182
e 94 183
e 94 222
e 95 113
e 95 120
e 95 123
e 95 136
e 95 159
e 95 160
e 95 182
e 95 184
e 95 193
e 95 198
e 95 206
e 95 222
e 95 250
e 96 116
e 96 118
e 96 121
e 96 138
e 96 166
e 96 177
e 96 190
e 96 212
e 96 213
e 96 222
e 96 239
e 96 244
e 97 103
e 97 137
e 97 160
e 97 163
e 97 180
e 97 202
e 97 209
e 97 215
e 97 240
e 98 101
e 98 124
e 98 150
e 98 155
e 98 164
e 98 174
e 98 192
e 98 203
e 98 207
e 98 219
e 98 227
e 98 229
e 98 236
e 98 239
e 98 242
e 99 104
e 99 110
e 99 111
e 99 123
e 99 126
e 99 142
e 99 149
e 99 152
e 99 163
e 99 176
e 99 185
e 99 191
e 99 193
e 99 204
e 99 209
e 99 223
e 99 225
e 99 238
e 99 247
e 100 109
e 100 128
e 100 141
e 100 145
e 100 150
e 100 163
e 100 166
e 100 183
e 100 195
e 100 200
e 100 214
e 100 231
e 100 233
e 100 234
e 100 245
e 100 247
e 101 103
e 101 108
e 101 115
e 101 116
e 101 124
e 101 160
e 101 165
e 101 173
e 101 179
e 101 189
e 101 194
e 101 202
e 101 214
e 101 219
e 101 229
e 101 239
e 102 111
e 102 139
e 102 143
e 102 157
e 102 161
e 102 177
e 102 180
e 102 183
e 102 186
e 102 189
e 102 193
e 102 211
e 102 214
e 102 238
e 102 246
e 103 109
e 103 111
e 103 113
e 103 115
e 103 137
e 103 144
e 103 152
e 103 163
e 103 166
e 103 167
e 103 181
e 103 192
e 103 197
e 103 204
e 103 212
e 103 215
e 103 218
e 103 225
e 103 233
e 103 245
e 103 246
e 104 105
e 104 122
e 104 131
e 104 136
e 104 160
e 104 166
e 104 181
e 104 184
e 104 221
e 104 226
e 104 235
e 104 237
e 104 245
e 105 120
e 105 121
e 105 141
e 105 158
e 105 185
e 105 199
e 105 202
e 105 214
e 105 216
e 106 109
e 106 116
e 106 119
e 106 120
e 106 131
e 106 133
e 106 137
e 106 144
e 106 161
e 106 169
e 106 172
e 106 177
e 106 186
e 106 187
e 106 199
e 106 208
e 106 230
e 106 240
e 106 245
e 107 108
e 107 118
e 107 121
e 107 140
e 107 141
e 107 142
e 107 144
e 107 168
e 107 175
e 107 180
e 107 186
e 107 194
e 107 216
e 107 218
e 107 228
e 107 229
e 107 230
e 107 238
e 107 241
e 107 249
e 108 118
e 108 120
e 108 126
e 108 129
e 108 136
e 108 148
e 108 151
e 108 157
e 108 164
e 108 173
e 108 179
e 108 185
e 108 200
e 108 207
e 108 209
e 108 231
e 108 232
e 108 240
e 109 116
e 109 129
e 109 139
e 109 143
e 109 192
e 109 196
e 109 207
e 109 222
e 109 231
e 109 236
e 109 237
e 109 247
e 110 122
e 110 124
e 110 129
e 110 134
e 110 155
e 110 164
e 110 185
e 110 195
e 110 196
e 110 199
e 110 209
e 110 212
e 110 231
e 111 120
e 111 128
e 111 129
e 111 133
e 111 135
e 111 136
e 111 149
e 111 156
e 111 171
e 111 182
e 111 191
e 111 192
e 111 194
e 111 196
e 111 197
e 111 199
e 111 208
e 111 212
e 111 223
e 112 113
e 112 114
e 112 116
e 112 147
e 112 152
e 112 160
e 112 178
e 112 194
e 112 201
e 112 202
e 112 209
e 112 225
e 112 242
e 113 128
e 113 132
e 113 147
e 113 161
e 113 175
e 113 204
e 113 207
e 113 224
e 113 227
e 114 121
e 114 124
e 114 130
e 114 147
e 114 149
e 114 150
e 114 165
e 114 183
e 114 185
e 114 187
e 114 188
e 114 196
e 114 204
e 114 207
e 114 222
e 114 228
e 114 241
e 114 243
e 115 121
e 115 141
e 115 147
e 115 153
e 115 154
e 115 165
e 115 167
e 115 186
e 115 202
e 115 207
e 115 211
e 115 212
e 115 214
e 115 227
e 115 228
e 115 235
e 116 134
e 116 141
e 116 154
e 116 167
e 116 191
e 116 197
e 116 198
e 116 200
e 116 211
e 116 216
e 117 129
e 117 134
e 117 138
e 117 140
e 117 144
e 117 159
e 117 165
e 117 170
e 117 174
e 117 181
e 117 200
e 117 203
e 117 212
e 117 213
e 117 229
e 117 236
e 117 240
e 118 128
e 118 137
e 118 146
e 118 148
e 118 151
e 118 162
e 118 200
e 118 207
e 118 211
e 118 215
e 118 219
e 118 229
e 118 231
e 119 128
e 119 143
e 119 144
e 119 154
e 119 171
e 119 187
e 119 209
e 119 214
e 119 216
e 119 217
e 119 233
e 120 138
e 120 141
e 120 146
e 120 150
e 120 152
e 120 171
e 120 174
e 120 185
e 120 186
e 120 200
e 120 232
e 120 246
e 121 132
e 121 137
e 121 138
e 121 148
e 121 188
e 121 192
e 121 227
e 121 241
e 121 243
e 122 182
e 122 199
e 122 214
e 122 225
e 122 232
e 122 243
e 123 144
e 123 155
e 123 162
e 123 192
e 123 194
e 123 207
e 123 209
e 123 241
e 124 130
e 124 133
e 124 135
e 124 136
e 124 140
e 124 146
e 124 161
e 124 166
e 124 170
e 124 172
e 124 177
e 124 190
e 124 205
e 124 209
e 124 223
e 124 226
e 124 241
e 124 246
e 124 248
e 125 129
e 125 154
e 125 156
e 125 174
e 125 180
e 125 187
e 125 210
e 125 212
e 125 216
e 125 218
e 125 226
e 125 227
e 125 235
e 126 128
e 126 133
e 126 134
e 126 140
e 126 142
e 126 144
e 126 186
e 126 197
e 126 219
e 126 220
e 126 228
e 126 231
e 126 248
e 127 129
e 127 134
e 127 147
e 127 155
e 127 157
e 127 223
e 127 232
e 127 235
e 127 238
e 127 249
e 128 129
e 128 144
e 128 191
e 128 222
e 128 226
e 128 247
e 128 249
e 129 133
e 129 137
e 129 146
e 129 148
e 129 159
e 129 185
e 129 204
e 129 230
e 129 240
e 130 141
e 130 150
e 130 151
e 130 152
e 130 160
e 130 161
e 130 164
e 130 181
e 130 182
e 130 193
e 130 202
e 130 203
e 130 204
e 130 206
e 130 207
e 130 209
e 130 234
e 130 237
e 130 239
e 131 139
e 131 146
e 131 187
e 131 189
e 131 206
e 131 209
e 131 211
e 131 222
e 132 147
e 132 148
e 132 162
e 132 167
e 132 183
e 132 190
e 132 194
e 132 206
e 132 208
e 132 211
e 132 220
e 132 222
e 132 228
e 132 236
e 132 244
e 132 247
e 133 137
e 133 142
e 133 144
e 133 154
e 133 167
e 133 198
e 133 216
e 133 221
e 133 224
e 133 245
e 134 139
e 134 151
e 134 157
e 134 169
e 134 189
e 134 196
e 134 208
e 134 209
e 135 140
e 135 160
e 135 171
e 135 173
e 135 181
e 135 189
e 135 192
e 135 194
e 135 200
e 135 204
e 135 216
e 135 231
e 135 237
e 136 147
e 136 157
e 136 183
e 136 186
e 136 188
e 136 200
e 136 210
e 136 219
e 136 233
e 136 235
e 136 238
e 136 243
e 137 138
e 137 142
e 137 146
e 137 152
e 137 155
e 137 160
e 137 169
e 137 187
e 137 198
e 137 204
e 137 205
e 137 209
e 137 227
e 137 230
e 137 249
e 137 250
e 138 142
e 138 145
e 138 146
e 138 153
e 138 163
e 138 169
e 138 183
e 138 185
e 138 199
e 138 207
e 138 215
e 138 232
e 138 233
e 138 250
e 139 148
e 139 151
e 139 160
e 139 163
e 139 170
e 139 174
e 139 184
e 139 190
e 139 195
e 139 197
e 139 224
e 139 225
e 139 236
e 139 242
e 139 250
e 140 141
e 140 145
e 140 146
e 140 147
e 140 148
e 140 175
e 140 176
e 140 181
e 140 193
e 140 200
e 140 238
e 140 243
e 141 171
e 141 176
e 141 181
e 141 184
e 141 204
e 141 206
e 141 216
e 141 226
e 142 143
e 142 148
e 142 158
e 142 165
e 142 192
e 142 201
e 142 219
e 142 226
e 142 234
e 142 240
e 142 246
e 143 153
e 143 154
e 143 157
e 143 160
e 143 186
e 143 188
e 143 208
e 143 211
e 143 226
e 143 236
e 143 250
e 144 157
e 144 180
e 144 181
e 144 184
e 144 203
e 144 215
e 144 217
e 144 219
e 145 159
e 145 167
e 145 172
e 145 173
e 145 183
e 145 236
e 146 152
e 146 158
e 146 179
e 146 211
e 146 222
e 146 247
e 147 160
e 147 164
e 147 166
e 147 172
e 147 204
e 147 229
e 147 234
e 147 239
e 147 246
e 148 158
e 148 163
e 148 173
e 148 187
e 148 203
e 148 207
e 148 216
e 148 226
e 148 236
e 149 155
e 149 160
e 149 182
e 149 183
e 149 184
e 149 185
e 149 203
e 149 212
e 149 225
e 149 235
e 149 250
e 150 154
e 150 164
e 150 182
e 150 215
e 150 222
e 150 224
e 150 225
e 150 230
e 150 235
e 150 244
e 150 249
e 150 250
e 151 168
e 151 197
e 151 220
e 151 227
e 151 239
e 151 240
e 151 245
e 151 246
e 151 247
e 151 248
e 152 154
e 152 159
e 152 163
e 152 165
e 152 185
e 152 203
e 152 227
e 152 230
e 152 232
e 152 235
e 152 240
e 152 247
e 153 179
e 153 183
e 153 184
e 153 189
e 153 196
e 153 206
e 153 209
e 153 211
e 153 218
e 153 250
e 154 156
e 154 161
e 154 229
e 154 233
e 154 244
e 154 246
e 155 156
e 155 185
e 155 193
e 155 195
e 155 197
e 155 203
e 155 205
e 155 219
e 155 231
e 155 232
e 155 247
e 155 249
e 156 167
e 156 168
e 156 173
e 156 174
e 156 178
e 156 188
e 156 192
e 156 230
e 156 235
e 156 242
e 156 250
e 157 170
e 157 172
e 157 179
e 157 189
e 157 196
e 157 203
e 157 204
e 157 224
e 157 231
e 157 239
e 157 245
e 157 247
e 158 166
e 158 168
e 158 169
e 158 209
e 158 216
e 158 219
e 158 228
e 158 244
e 159 163
e 159 175
e 159 186
e 159 192
e 159 194
e 159 197
e 159 208
e 159 210
e 159 211
e 159 212
e 159 216
e 160 163
e 160 177
e 160 184
e 160 191
e 160 194
e 160 205
e 160 214
e 160 216
e 160 223
e 160 224
e 160 228
e 161 184
e 161 210
e 161 214
e 161 221
e 161 226
e 161 248
e 162 163
e 162 166
e 162 168
e 162 172
e 162 179
e 162 183
e 162 195
e 162 217
e 162 223
e 162 228
e 162 237
e 162 241
e 162 247
e 163 169
e 163 191
e 163 200
e 163 206
e 163 208
e 163 232
e 164 165
e 164 177
e 164 190
e 164 200
e 164 202
e 164 223
e 164 231
e 164 243
e 164 245
e 165 188
e 165 229
e 165 233
e 165 243
e 166 181
e 166 184
e 166 188
e 166 197
e 166 204
e 166 212
e 166 225
e 166 241
e 166 249
e 167 180
e 167 195
e 167 209
e 167 216
e 167 219
e 167 224
e 167 225
e 167 226
e 167 241
e 167 248
e 168 175
e 168 190
e 168 208
e 168 209
e 168 219
e 168 238
e 168 246
e 168 248
e 169 178
e 169 186
e 169 190
e 169 196
e 169 207
e 169 215
e 169 223
e 169 235
e 170 171
e 170 172
e 170 182
e 170 191
e 170 192
e 170 195
e 170 198
e 170 223
e 170 242
e 171 180
e 171 186
e 171 191
e 171 212
e 171 245
e 172 173
e 172 183
e 172 189
e 172 194
e 172 209
e 172 218
e 172 226
e 172 240
e 172 247
e 173 183
e 173 192
e 173 225
e 173 229
e 173 241
e 173 242
e 173 248
e 174 179
e 174 190
e 174 199
e 174 215
e 174 221
e 174 228
e 174 235
e 174 243
e 175 198
e 175 199
e 175 208
e 175 214
e 175 231
e 175 240
e 175 245
e 176 183
e 176 191
e 176 194
e 176 195
e 176 199
e 177 179
e 177 230
e 177 239
e 178 184
e 178 207
e 178 210
e 178 218
e 178 229
e 178 233
e 178 247
e 179 181
e 179 182
e 179 196
e 179 206
e 179 239
e 179 249
e 180 200
e 180 232
e 180 247
e 181 183
e 181 189
e 181 190
e 181 191
e 181 229
e 181 230
e 181 239
e 181 240
e 181 244
e 181 250
e 182 200
e 182 202
e 182 207
e 182 216
e 182 235
e 182 236
e 183 185
e 183 188
e 183 196
e 183 234
e 183 244
e 184 187
e 184 200
e 184 214
e 184 216
e 184 223
e 184 226
e 184 231
e 184 233
e 184 236
e 184 247
e 184 248
e 185 186
e 185 220
e 185 231
e 185 234
e 185 245
e 185 247
e 186 194
e 186 196
e 186 210
e 186 219
e 186 223
e 186 224
e 186 225
e 186 226
e 186 240
e 187 214
e 187 225
e 187 227
e 187 240
e 188 202
e 188 210
e 188 218
e 188 222
e 188 227
e 188 231
e 189 190
e 189 193
e 189 209
e 189 222
e 189 228
e 189 233
e 189 234
e 189 238
e 189 246
e 189 247
e 190 194
e 190 197
e 190 213
e 190 217
e 190 235
e 191 192
e 191 194
e 191 198
e 191 202
e 191 205
e 191 206
e 191 207
e 191 211
e 192 218
e 192 243
e 192 249
e 193 205
e 193 212
e 193 215
e 193 230
e 193 233
e 193 241
e 193 242
e 193 250
e 194 206
e 194 215
e 194 220
e 194 231
e 194 244
e 194 250
e 195 197
e 195 219
e 195 240
e 195 247
e 196 208
e 196 211
e 196 215
e 196 226
e 196 227
e 196 233
e 196 250
e 197 229
e 198 205
e 198 207
e 198 214
e 198 215
e 198 224
e 199 201
e 199 204
e 199 215
e 199 226
e 200 202
e 200 215
e 200 222
e 200 225
e 200 233
e 201 210
e 201 215
e 201 231
e 202 214
e 202 221
e 202 244
e 203 208
e 203 220
e 203 239
e 204 211
e 204 223
e 204 237
e 204 243
e 204 244
e 204 247
e 205 207
e 205 229
e 205 239
e 205 241
e 206 218
e 206 223
e 206 229
e 206 237
e 206 244
e 207 216
e 207 226
e 207 231
e 207 235
e 207 240
e 207 241
e 208 213
e 208 217
e 208 227
e 208 248
e 209 210
e 209 214
e 209 215
e 209 225
e 209 230
e 209 232
e 209 247
e 210 239
e 210 243
e 210 249
e 211 231
e 211 232
e 211 245
e 211 250
e 212 220
e 212 229
e 212 238
e 212 247
e 212 250
e 213 233
e 213 243
e 214 225
e 214 235
e 214 236
e 214 237
e 214 244
e 215 229
e 215 233
e 215 241
e 215 242
e 216 233
e 216 244
e 216 250
e 217 220
e 217 223
e 217 231
e 217 238
e 217 243
e 217 244
e 217 245
e 218 219
e 218 233
e 218 248
e 219 222
e 219 233
e 219 235
e 219 241
e 219 243
e 220 224
e 220 229
e 220 233
e 220 235
e 220 248
e 221 224
e 221 229
e 221 231
e 221 235
e 221 236
e 221 241
e 222 226
e 222 229
e 222 233
e 222 234
e 222 245
e 222 250
e 223 243
e 224 227
e 224 228
e 225 241
e 225 246
e 225 249
e 227 245
e 228 248
e 229 239
e 229 245
e 230 248
e 231 236
e 231 241
e 231 244
e 233 234
e 233 241
e 233 243
e 233 244
e 233 246
e 233 248
e 234 235
e 234 236
e 234 242
e 234 247
e 235 236
e 235 238
e 237 240
e 237 247
e 238 241
e 239 242
e 239 250
e 240 243
e 241 246
e 241 247
e 242 248
e 245 246
e 245 248
